Input_Data

VEHICLE
NUMBER     CAPACITY
  10         3

CUSTOMER
CUST NO.   XCOORD.  YCOORD.    DEMAND    READY TIME  DUE DATE  SERVICE   TIME
 
    0      40         50          0          0       0          0   
    1      100       200          0          0       0          0   
    2      45         70          1          0       0          0   
    3      42         66          1          0       0          0   
    4      42         68          1          0       0          0   
    5      52         65          1          0       0          0   
    6      80         69          1          0       0          0   
    7      40         66          1          0       0          0   
    8      38         68          1          0       0          0   
    9      88         70          1          0       0          0   
   10      35         66          1          0       0          0   
   11      35         69          1          0       0          0   
   12      25         85          1          0       0          0   
   13      22         75          1          0       0          0   
   14      22         25          1          0       0          0   
   15      20         80          1          0       0          0     
   16      20         85          1          0       0          0   
   17      18         75          1          0       0          0   
   18      15         150         1          0       0          0   
   19      15         50          1          0       0          0   
   20      30         50          1          0       0          0   
   21      30         52          1          0       0          0   
   22      28         52          1          0       0          0   
   23      28         15          1          0       0          0   
   24      25         50          1          0       0          0   
   25      25         25          1          0       0          0